\ENCODING=ISO-8859-1
\Problem name: IloCplex

Minimize
 obj1: 1.79999999999999 x_02 + 4.925 x_01 + 0.975 x_00
Subject To
 c1:  u_00 <= 1
 c2:  u_01 <= 1
 c3:  u_02 <= 4
 c4:  x_02 + x_01 >= 1
 c5:  - 300 hap_1_0 + ap_0 <= 0
 c6:  x_02 + x_01 + 2 hap_1_0 <= 3
 c7:  - x_01 - x_00 >= -1
 c8:  - 300 han_2_0 + an_0 <= 0
 c9:  - x_01 - x_00 + 2 han_2_0 <= 1
 c10: - x_02 + x_00 >= 0
 c11: - 300 hb_01 + b_01 <= 0
 c12: - x_02 + x_00 + 2 hb_01 <= 2
 c13: - u_00 - an_0 + b_01 <= 1.975
 c14: x_00 - 2 hdu_00 <= 0
 c15: u_00 + an_0 - b_01 + 300 hdu_00 <= 298.025
 c16: - u_01 + ap_0 - an_0 <= 5.925
 c17: x_01 - 2 hdu_01 <= 0
 c18: u_01 - ap_0 + an_0 + 300 hdu_01 <= 294.075
 c19: - u_02 + ap_0 - b_01 <= 2.79999999999999
 c20: x_02 - 2 hdu_02 <= 0
 c21: u_02 - ap_0 + b_01 + 300 hdu_02 <= 297.2
Bounds
 0 <= x_02 <= 1
 0 <= x_01 <= 1
 0 <= hap_1_0 <= 1
 0 <= x_00 <= 1
 0 <= han_2_0 <= 1
 0 <= hb_01 <= 1
 0 <= hdu_00 <= 1
 0 <= hdu_01 <= 1
 0 <= hdu_02 <= 1
Binaries
 hap_1_0  han_2_0  hb_01  hdu_00  hdu_01  hdu_02 
End
